c CNF file generated from BLIF2CNF script.
c Original BLIF file was blif/misex1.blif
p cnf 47 193
-1 -6 0
2 -6 0
3 -6 0
4 -6 0
6 1 -2 -3 -4  0
-6 5 0
1 -7 0
-2 -7 0
3 -7 0
-4 -7 0
7 -1 2 -3 4  0
-7 5 0
-5 6 7  0
-1 -11 0
2 -11 0
-3 -11 0
11 1 -2 3  0
-11 10 0
-1 -12 0
-2 -12 0
3 -12 0
4 -12 0
12 1 2 -3 -4  0
-12 10 0
1 -13 0
-2 -13 0
-3 -13 0
4 -13 0
13 -1 2 3 -4  0
-13 10 0
-1 -14 0
-2 -14 0
3 -14 0
8 -14 0
14 1 2 -3 -8  0
-14 10 0
-1 -15 0
-3 -15 0
-4 -15 0
9 -15 0
15 1 3 4 -9  0
-15 10 0
-10 11 12 13 14 15  0
-1 -18 0
2 -18 0
4 -18 0
18 1 -2 -4  0
-18 17 0
1 -19 0
-2 -19 0
-3 -19 0
4 -19 0
19 -1 2 3 -4  0
-19 17 0
-1 -20 0
2 -20 0
-3 -20 0
16 -20 0
20 1 -2 3 -16  0
-20 17 0
-1 -21 0
-2 -21 0
3 -21 0
-4 -21 0
-8 -21 0
21 1 2 -3 4 8  0
-21 17 0
-1 -22 0
-2 -22 0
-3 -22 0
-4 -22 0
-9 -22 0
22 1 2 3 4 9  0
-22 17 0
-17 18 19 20 21 22  0
1 -25 0
-2 -25 0
3 -25 0
-4 -25 0
25 -1 2 -3 4  0
-25 24 0
-2 -26 0
3 -26 0
-4 -26 0
-8 -26 0
26 2 -3 4 8  0
-26 24 0
-1 -27 0
2 -27 0
-3 -27 0
-23 -27 0
27 1 -2 3 23  0
-27 24 0
-1 -28 0
2 -28 0
-3 -28 0
-4 -28 0
-16 -28 0
28 1 -2 3 4 16  0
-28 24 0
-24 25 26 27 28  0
-1 -30 0
2 -30 0
-3 -30 0
30 1 -2 3  0
-30 29 0
-1 -31 0
3 -31 0
4 -31 0
31 1 -3 -4  0
-31 29 0
-2 -32 0
3 -32 0
-4 -32 0
32 2 -3 4  0
-32 29 0
-1 -33 0
-3 -33 0
-4 -33 0
33 1 3 4  0
-33 29 0
1 -34 0
-2 -34 0
-3 -34 0
4 -34 0
34 -1 2 3 -4  0
-34 29 0
-29 30 31 32 33 34  0
-1 -36 0
2 -36 0
-3 -36 0
36 1 -2 3  0
-36 35 0
-1 -37 0
3 -37 0
4 -37 0
37 1 -3 -4  0
-37 35 0
1 -38 0
-2 -38 0
-3 -38 0
4 -38 0
38 -1 2 3 -4  0
-38 35 0
1 -39 0
-2 -39 0
3 -39 0
-4 -39 0
39 -1 2 -3 4  0
-39 35 0
-1 -40 0
-2 -40 0
3 -40 0
8 -40 0
40 1 2 -3 -8  0
-40 35 0
-1 -41 0
-3 -41 0
-4 -41 0
9 -41 0
41 1 3 4 -9  0
-41 35 0
-35 36 37 38 39 40 41  0
-1 -43 0
2 -43 0
4 -43 0
43 1 -2 -4  0
-43 42 0
1 -44 0
-2 -44 0
-3 -44 0
4 -44 0
44 -1 2 3 -4  0
-44 42 0
1 -45 0
-2 -45 0
3 -45 0
-4 -45 0
45 -1 2 -3 4  0
-45 42 0
-1 -46 0
2 -46 0
-3 -46 0
-16 -46 0
46 1 -2 3 16  0
-46 42 0
-2 -47 0
3 -47 0
-4 -47 0
-8 -47 0
47 2 -3 4 8  0
-47 42 0
-42 43 44 45 46 47  0
